10J3M/DAT/10J3MNNR-20.dat
10 3
21.0959 0.5241
31.6193 44.3707
27.5899 21.0949
25.2673 36.9569
28.3004 7.6786
35.3189 25.6686
28.781 48.2156
24.7489 28.4309
35.631 22.7231
21.4037 16.0608
251.7242