10J3M/SOL/10J3MNNR-20.sol
solution status: optimal solution found
objective value:                              93.2521
x#1#1                                               1 	(obj:0)
x#2#2                               0.294664967282641 	(obj:0)
x#2#3                               0.705335032717359 	(obj:0)
x#3#1                               0.026687302237413 	(obj:0)
x#3#2                               0.973312697762587 	(obj:0)
x#4#1                                               1 	(obj:0)
x#5#2                                               1 	(obj:0)
x#6#3                                               1 	(obj:0)
x#7#2                                               1 	(obj:0)
x#8#1                                               1 	(obj:0)
x#9#3                                               1 	(obj:0)
x#10#1                                              1 	(obj:0)
z                                             93.2521 	(obj:1)
